p edge 180 179 76
e 1 50
e 2 132
e 2 58
e 2 51
e 2 28
e 2 27
e 3 103
e 3 116
e 4 140
e 5 155
e 6 154
e 6 155
e 7 29
e 7 110
e 7 119
e 7 59
e 7 180
e 8 125
e 9 122
e 9 138
e 10 99
e 10 23
e 11 134
e 11 148
e 12 60
e 13 107
e 14 62
e 14 130
e 15 36
e 15 86
e 16 112
e 16 26
e 17 57
e 17 34
e 18 80
e 18 144
e 19 60
e 20 40
e 20 43
e 21 49
e 21 68
e 21 47
e 22 131
e 23 88
e 23 58
e 24 171
e 25 136
e 25 176
e 25 145
e 26 148
e 26 73
e 27 61
e 28 100
e 28 108
e 30 115
e 31 72
e 31 68
e 32 121
e 33 56
e 34 107
e 34 169
e 34 144
e 34 98
e 35 89
e 37 109
e 37 113
e 37 117
e 37 41
e 37 142
e 38 102
e 39 46
e 40 67
e 41 131
e 41 139
e 42 150
e 43 45
e 44 54
e 45 86
e 46 177
e 47 135
e 48 149
e 48 166
e 50 138
e 51 125
e 52 69
e 52 173
e 52 144
e 53 121
e 54 64
e 54 122
e 55 91
e 55 101
e 55 151
e 56 151
e 57 140
e 57 73
e 57 179
e 59 170
e 60 77
e 61 82
e 61 162
e 61 141
e 62 111
e 63 73
e 65 89
e 66 121
e 70 180
e 71 150
e 73 123
e 73 130
e 74 93
e 74 179
e 75 82
e 76 104
e 77 104
e 78 124
e 78 158
e 79 92
e 80 141
e 81 119
e 82 175
e 83 167
e 84 179
e 85 135
e 85 155
e 86 162
e 87 96
e 89 157
e 90 164
e 90 111
e 92 96
e 93 137
e 94 106
e 94 152
e 94 118
e 94 178
e 94 174
e 95 143
e 96 111
e 97 129
e 98 170
e 99 160
e 102 124
e 104 163
e 105 153
e 105 167
e 105 179
e 106 116
e 108 126
e 111 161
e 114 128
e 114 167
e 115 143
e 115 180
e 118 155
e 120 158
e 120 150
e 121 145
e 125 145
e 126 133
e 127 155
e 129 161
e 131 157
e 133 159
e 133 174
e 137 151
e 137 165
e 138 163
e 139 163
e 142 159
e 146 156
e 147 166
e 147 150
e 148 171
e 150 180
e 156 172
e 162 177
e 168 175
e 172 175
